; Options: -in -smt2
(set-option :produce-unsat-assumptions true)

(declare-fun start!2357 () Bool)

(assert start!2357)

(declare-fun res!9771 () Bool)

(declare-fun e!7117 () Bool)

(assert (=> start!2357 (=> (not res!9771) (not e!7117))))

(declare-fun jz!59 () (_ BitVec 32))

(assert (=> start!2357 (= res!9771 (and (bvsle #b00000000000000000000000000000010 jz!59) (bvslt jz!59 #b00000000000000000000000000010011)))))

(assert (=> start!2357 e!7117))

(assert (=> start!2357 true))

(declare-datatypes ((array!924 0))(
  ( (array!925 (arr!405 (Array (_ BitVec 32) (_ BitVec 32))) (size!405 (_ BitVec 32))) )
))
(declare-fun iq!194 () array!924)

(declare-fun array_inv!354 (array!924) Bool)

(assert (=> start!2357 (array_inv!354 iq!194)))

(declare-datatypes ((array!926 0))(
  ( (array!927 (arr!406 (Array (_ BitVec 32) (_ FloatingPoint 11 53))) (size!406 (_ BitVec 32))) )
))
(declare-fun qq!48 () array!926)

(declare-fun array_inv!355 (array!926) Bool)

(assert (=> start!2357 (array_inv!355 qq!48)))

(declare-fun q!93 () array!926)

(assert (=> start!2357 (array_inv!355 q!93)))

(declare-fun b!12515 () Bool)

(declare-datatypes ((Unit!1397 0))(
  ( (Unit!1398) )
))
(declare-datatypes ((tuple4!292 0))(
  ( (tuple4!293 (_1!327 Unit!1397) (_2!327 array!924) (_3!264 (_ BitVec 32)) (_4!146 (_ FloatingPoint 11 53))) )
))
(declare-fun lt!6591 () tuple4!292)

(declare-fun lt!6593 () (_ BitVec 32))

(declare-datatypes ((tuple4!294 0))(
  ( (tuple4!295 (_1!328 Unit!1397) (_2!328 (_ BitVec 32)) (_3!265 array!924) (_4!147 (_ BitVec 32))) )
))
(declare-fun e!7110 () tuple4!294)

(declare-fun lt!6596 () (_ BitVec 32))

(declare-fun computeModuloWhile!3 ((_ BitVec 32) array!926 (_ BitVec 32) array!924 (_ BitVec 32)) tuple4!294)

(assert (=> b!12515 (= e!7110 (computeModuloWhile!3 jz!59 q!93 lt!6593 (_2!327 lt!6591) lt!6596))))

(declare-fun b!12516 () Bool)

(declare-fun res!9773 () Bool)

(declare-fun e!7115 () Bool)

(assert (=> b!12516 (=> (not res!9773) (not e!7115))))

(declare-fun qqInv!0 (array!926) Bool)

(assert (=> b!12516 (= res!9773 (qqInv!0 qq!48))))

(declare-fun b!12517 () Bool)

(declare-fun res!9777 () Bool)

(assert (=> b!12517 (=> (not res!9777) (not e!7115))))

(assert (=> b!12517 (= res!9777 (and (bvsle (select (arr!405 iq!194) (bvsub jz!59 #b00000000000000000000000000000001)) #b00000000011111111111111111111111) (= (size!406 qq!48) #b00000000000000000000000000010100)))))

(declare-fun b!12518 () Bool)

(declare-fun Unit!1399 () Unit!1397)

(assert (=> b!12518 (= e!7110 (tuple4!295 Unit!1399 lt!6593 (_2!327 lt!6591) lt!6596))))

(declare-fun b!12519 () Bool)

(declare-fun res!9775 () Bool)

(assert (=> b!12519 (=> (not res!9775) (not e!7115))))

(declare-fun iqInv!0 (array!924) Bool)

(assert (=> b!12519 (= res!9775 (iqInv!0 iq!194))))

(declare-fun b!12520 () Bool)

(declare-fun res!9776 () Bool)

(assert (=> b!12520 (=> (not res!9776) (not e!7115))))

(declare-fun i!271 () (_ BitVec 32))

(assert (=> b!12520 (= res!9776 (bvslt i!271 jz!59))))

(declare-fun b!12521 () Bool)

(assert (=> b!12521 (= e!7115 (or (bvslt i!271 #b00000000000000000000000000000000) (bvsge i!271 (size!406 qq!48))))))

(declare-fun b!12522 () Bool)

(declare-fun res!9770 () Bool)

(assert (=> b!12522 (=> (not res!9770) (not e!7115))))

(declare-fun QInt!0 ((_ BitVec 32)) Bool)

(assert (=> b!12522 (= res!9770 (QInt!0 (select (arr!405 iq!194) (bvsub (bvsub jz!59 #b00000000000000000000000000000001) i!271))))))

(declare-fun e!7111 () tuple4!292)

(declare-fun b!12523 () Bool)

(declare-fun lt!6595 () array!924)

(declare-fun lt!6590 () (_ FloatingPoint 11 53))

(declare-fun computeModuloWhile!0 ((_ BitVec 32) array!926 array!924 (_ BitVec 32) (_ FloatingPoint 11 53)) tuple4!292)

(assert (=> b!12523 (= e!7111 (computeModuloWhile!0 jz!59 q!93 lt!6595 jz!59 lt!6590))))

(declare-fun b!12524 () Bool)

(declare-datatypes ((tuple3!236 0))(
  ( (tuple3!237 (_1!329 Unit!1397) (_2!329 array!924) (_3!266 (_ BitVec 32))) )
))
(declare-fun e!7118 () tuple3!236)

(declare-fun Unit!1400 () Unit!1397)

(assert (=> b!12524 (= e!7118 (tuple3!237 Unit!1400 (_2!327 lt!6591) lt!6596))))

(declare-fun lt!6589 () tuple4!294)

(declare-fun lt!6592 () (_ BitVec 32))

(declare-fun b!12525 () Bool)

(declare-fun Unit!1401 () Unit!1397)

(assert (=> b!12525 (= e!7118 (tuple3!237 Unit!1401 (array!925 (store (arr!405 (_3!265 lt!6589)) (bvsub jz!59 #b00000000000000000000000000000001) (ite (= (_4!147 lt!6589) #b00000000000000000000000000000000) (bvsub #b00000001000000000000000000000000 lt!6592) (bvsub #b00000000111111111111111111111111 lt!6592))) (size!405 (_3!265 lt!6589))) (_4!147 lt!6589)))))

(assert (=> b!12525 (= lt!6593 #b00000000000000000000000000000000)))

(declare-fun c!1586 () Bool)

(assert (=> b!12525 (= c!1586 (bvslt lt!6593 (bvsub jz!59 #b00000000000000000000000000000001)))))

(assert (=> b!12525 (= lt!6589 e!7110)))

(assert (=> b!12525 (= lt!6592 (select (arr!405 (_3!265 lt!6589)) (bvsub jz!59 #b00000000000000000000000000000001)))))

(declare-fun b!12526 () Bool)

(declare-fun e!7116 () Bool)

(assert (=> b!12526 (= e!7117 e!7116)))

(declare-fun res!9774 () Bool)

(assert (=> b!12526 (=> (not res!9774) (not e!7116))))

(declare-fun lt!6594 () (_ FloatingPoint 11 53))

(assert (=> b!12526 (= res!9774 (and (fp.leq (fp #b0 #b00000000000 #b0000000000000000000000000000000000000000000000000000) lt!6594) (fp.lt lt!6594 (fp #b0 #b10000000010 #b0000000000000000000000000000000000000000000000000000))))))

(assert (=> b!12526 (= lt!6594 (fp.sub roundNearestTiesToEven (_4!146 lt!6591) (fp.mul roundNearestTiesToEven (fp #b0 #b10000000010 #b0000000000000000000000000000000000000000000000000000) ((_ to_fp 11 53) roundNearestTiesToEven (ite (fp.isNaN (fp.mul roundNearestTiesToEven (_4!146 lt!6591) (fp #b0 #b01111111100 #b0000000000000000000000000000000000000000000000000000))) #b0000000000000000000000000000000000000000000000000000000000000000 (ite (fp.gt (fp.mul roundNearestTiesToEven (_4!146 lt!6591) (fp #b0 #b01111111100 #b0000000000000000000000000000000000000000000000000000)) ((_ to_fp 11 53) roundTowardZero #b0111111111111111111111111111111111111111111111111111111111111111)) #b0111111111111111111111111111111111111111111111111111111111111111 (ite (fp.lt (fp.mul roundNearestTiesToEven (_4!146 lt!6591) (fp #b0 #b01111111100 #b0000000000000000000000000000000000000000000000000000)) ((_ to_fp 11 53) roundTowardZero #b1000000000000000000000000000000000000000000000000000000000000000)) #b1000000000000000000000000000000000000000000000000000000000000000 ((_ fp.to_sbv 64) roundTowardZero (fp.mul roundNearestTiesToEven (_4!146 lt!6591) (fp #b0 #b01111111100 #b0000000000000000000000000000000000000000000000000000))))))))))))

(assert (=> b!12526 (= lt!6591 e!7111)))

(declare-fun c!1584 () Bool)

(assert (=> b!12526 (= c!1584 (bvsgt jz!59 #b00000000000000000000000000000000))))

(assert (=> b!12526 (= lt!6590 (select (arr!406 q!93) jz!59))))

(assert (=> b!12526 (= lt!6595 (array!925 ((as const (Array (_ BitVec 32) (_ BitVec 32))) #b00000000000000000000000000000000) #b00000000000000000000000000010100))))

(declare-fun b!12527 () Bool)

(declare-fun Unit!1402 () Unit!1397)

(assert (=> b!12527 (= e!7111 (tuple4!293 Unit!1402 lt!6595 jz!59 lt!6590))))

(declare-fun b!12528 () Bool)

(declare-fun res!9769 () Bool)

(assert (=> b!12528 (=> (not res!9769) (not e!7117))))

(declare-fun qInv!0 (array!926) Bool)

(assert (=> b!12528 (= res!9769 (qInv!0 q!93))))

(declare-fun b!12529 () Bool)

(assert (=> b!12529 (= e!7116 e!7115)))

(declare-fun res!9772 () Bool)

(assert (=> b!12529 (=> (not res!9772) (not e!7115))))

(declare-fun lt!6597 () tuple3!236)

(declare-fun lt!6588 () Bool)

(assert (=> b!12529 (= res!9772 (and (bvsle #b00000000000000000000000000000000 (select (arr!405 (_2!329 lt!6597)) (bvsub jz!59 #b00000000000000000000000000000001))) (bvsle (select (arr!405 (_2!329 lt!6597)) (bvsub jz!59 #b00000000000000000000000000000001)) #b00000000100000000000000000000000) (or (not lt!6588) (not (= (_3!266 lt!6597) #b00000000000000000000000000000000)) (not (= (select (arr!405 (_2!329 lt!6597)) (bvsub jz!59 #b00000000000000000000000000000001)) #b00000000100000000000000000000000))) (bvsle (select (arr!405 (_2!329 lt!6597)) (bvsub jz!59 #b00000000000000000000000000000001)) #b00000000011111111111111111111111) (bvsle #b00000000000000000000000000000000 i!271) (bvsle i!271 jz!59)))))

(assert (=> b!12529 (= lt!6597 e!7118)))

(declare-fun c!1585 () Bool)

(assert (=> b!12529 (= c!1585 lt!6588)))

(assert (=> b!12529 (= lt!6596 #b00000000000000000000000000000000)))

(assert (=> b!12529 (= lt!6588 (bvsge (select (arr!405 (_2!327 lt!6591)) (bvsub jz!59 #b00000000000000000000000000000001)) #b00000000100000000000000000000000))))

(assert (= (and start!2357 res!9771) b!12528))

(assert (= (and b!12528 res!9769) b!12526))

(assert (= (and b!12526 c!1584) b!12523))

(assert (= (and b!12526 (not c!1584)) b!12527))

(assert (= (and b!12526 res!9774) b!12529))

(assert (= (and b!12529 c!1585) b!12525))

(assert (= (and b!12529 (not c!1585)) b!12524))

(assert (= (and b!12525 c!1586) b!12515))

(assert (= (and b!12525 (not c!1586)) b!12518))

(assert (= (and b!12529 res!9772) b!12519))

(assert (= (and b!12519 res!9775) b!12517))

(assert (= (and b!12517 res!9777) b!12516))

(assert (= (and b!12516 res!9773) b!12520))

(assert (= (and b!12520 res!9776) b!12522))

(assert (= (and b!12522 res!9770) b!12521))

(declare-fun m!18475 () Bool)

(assert (=> b!12526 m!18475))

(declare-fun m!18477 () Bool)

(assert (=> b!12516 m!18477))

(declare-fun m!18479 () Bool)

(assert (=> b!12519 m!18479))

(declare-fun m!18481 () Bool)

(assert (=> b!12523 m!18481))

(declare-fun m!18483 () Bool)

(assert (=> start!2357 m!18483))

(declare-fun m!18485 () Bool)

(assert (=> start!2357 m!18485))

(declare-fun m!18487 () Bool)

(assert (=> start!2357 m!18487))

(declare-fun m!18489 () Bool)

(assert (=> b!12522 m!18489))

(assert (=> b!12522 m!18489))

(declare-fun m!18491 () Bool)

(assert (=> b!12522 m!18491))

(declare-fun m!18493 () Bool)

(assert (=> b!12529 m!18493))

(declare-fun m!18495 () Bool)

(assert (=> b!12529 m!18495))

(declare-fun m!18497 () Bool)

(assert (=> b!12528 m!18497))

(declare-fun m!18499 () Bool)

(assert (=> b!12515 m!18499))

(declare-fun m!18501 () Bool)

(assert (=> b!12517 m!18501))

(declare-fun m!18503 () Bool)

(assert (=> b!12525 m!18503))

(declare-fun m!18505 () Bool)

(assert (=> b!12525 m!18505))

(check-sat (not start!2357) (not b!12519) (not b!12528) (not b!12515) (not b!12522) (not b!12523) (not b!12516))
(check-sat)
